20 1 6
213 998 150 807 5 399 351 1000 959 275 813 832 882 121 941 500 885 178 635 553 
856 521 686 387 359 371 986 303 961 495 775 526 844 276 684 848 26 386 847 984 
12 659 816 894 131 756 745 16 285 380 920 492 900 605 878 610 327 215 264 640 
709 390 517 552 665 200 751 691 937 597 674 949 608 489 842 738 596 938 105 880 
317 24 371 568 980 600 529 307 815 793 298 875 534 814 779 199 13 529 241 301 
126 266 249 85 755 442 174 702 380 631 582 48 6 304 968 986 904 496 644 718 
6400 9410 5920 1740 7540 3700 7240 1180 8990 3160 4180 3760 5810 190 8120 6870 4600 3370 3890 8390 
52230
